% demand
num_movements = 24;
loading_factor = [1850, 850, 1400, 1450, 1650, 1100, 1400, 1200, 1500, 850, 1700, 1200, 1850, 1300, 850, 1600, 1850, 1750, 1450, 1850, 1350, 1350, 800, 1100];
pickup_time = [0, 0, 0, 0, 0, 0, 0, 0, 1, 2, 3, 3, 3, 3, 3, 3, 4, 4, 5, 6, 6, 6, 9, 9];
delivery_time = [1, 1, 2, 1, 1, 1, 1, 2, 8, 4, 6, 7, 4, 8, 4, 6, 7, 5, 6, 7, 8, 8, 10, 10];

% transporter definition
total_capacity = 11000;
num_decks = 4;
capacity = [3000, 3000, 1000, 4000];

% ways out of decks
num_ways_out = 2;
paths_out = array3d(decks, ways_out, decks, [
% ways out of deck d1
2, 4, 0, 0, 3, 4, 0, 0, 

% ways out of deck d2
4, 0, 0, 0, 0, 0, 0, 0,	

% ways out of deck d3
4, 0, 0, 0, 0, 0, 0, 0,	

% ways out of deck d4
0, 0, 0, 0,	0, 0, 0, 0,	

]);

